15
45
572
702
676
747
745
599
701
751
794
653
639
707
850
637
955
750	750
136	136
377	377
61	61
540	540
564	564
175	175
551	551
602	602
149	149
101	101
952	952
87	87
335	335
469	469
466	466
99	99
487	487
487	487
770	770
644	644
133	133
708	708
539	539
170	170
767	767
871	871
774	774
893	893
429	429
178	178
676	676
325	325
441	441
901	901
828	828
859	859
461	461
944	944
85	85
104	104
521	521
431	431
440	440
177	177
